webassembly/ejemplos_results/3/folder3_json_99.txt
value = 3;
fgas = [1, 1, 1];
fsize = [1, 1, 1];
states = 
[|   in_0, in_1, in_2, in_3, '.', '.', '.', '.', '.'
 |   in_2, in_3,  '.',  '.', '.', '.', '.', '.', '.'
 |   in_3,  '.',  '.',  '.', '.', '.', '.', '.', '.'
 | 's(0)',  '.',  '.',  '.', '.', '.', '.', '.', '.'
 |];
register_states = 
[| local_0, '.', '.', '.', '.'
 | local_0, '.', '.', '.', '.'
 |    in_2, '.', '.', '.', '.'
 |    in_2, '.', '.', '.', '.'
 |];
program = [O('i32.store16_0'), S(SET1), O('i32.load16_s_2')];
% time elapsed: 0.05 s
----------
==========
% time elapsed: 0.05 s
% [value > 2]
